Optimize a model with 6537899 rows, 3821728 columns and 23291424 nonzeros
Model has 2450 quadratic objective terms
Coefficient statistics:
  Matrix range    [1e+00, 7e+02]
  Objective range [1e+02, 7e+02]
  Bounds range    [1e+00, 1e+05]
  RHS range       [1e+00, 1e+04]
Presolve removed 37093 rows and 106674 columns (presolve time = 5s) ...
Presolve removed 326931 rows and 234310 columns (presolve time = 11s) ...
Presolve removed 326980 rows and 234310 columns (presolve time = 26s) ...
Presolve removed 326980 rows and 287389 columns (presolve time = 30s) ...
Presolve removed 326980 rows and 287389 columns (presolve time = 35s) ...
Presolve removed 326980 rows and 287389 columns (presolve time = 40s) ...
Presolve removed 326980 rows and 287389 columns (presolve time = 45s) ...
Presolve removed 326980 rows and 287389 columns (presolve time = 50s) ...
Presolve removed 326980 rows and 287389 columns (presolve time = 55s) ...
Presolve removed 329591 rows and 290000 columns (presolve time = 60s) ...
Presolve removed 380108 rows and 340517 columns (presolve time = 65s) ...
Presolve removed 380108 rows and 340517 columns (presolve time = 70s) ...
Presolve removed 380108 rows and 340517 columns (presolve time = 75s) ...
Presolve removed 397954 rows and 340517 columns (presolve time = 80s) ...
Presolve removed 397954 rows and 340517 columns (presolve time = 85s) ...
Presolve removed 397954 rows and 340517 columns (presolve time = 90s) ...
Presolve removed 397954 rows and 340517 columns (presolve time = 95s) ...
Presolve removed 397954 rows and 340517 columns (presolve time = 100s) ...
Presolve removed 397954 rows and 340517 columns (presolve time = 105s) ...
Presolve removed 397954 rows and 340517 columns (presolve time = 110s) ...
Presolve removed 397954 rows and 340517 columns (presolve time = 115s) ...
Presolve removed 397954 rows and 340517 columns (presolve time = 120s) ...
Presolve removed 397954 rows and 340517 columns (presolve time = 125s) ...
Presolve removed 397954 rows and 340517 columns (presolve time = 130s) ...
Presolve removed 397954 rows and 340517 columns (presolve time = 135s) ...
Presolve removed 397954 rows and 340517 columns (presolve time = 140s) ...
Presolve removed 397954 rows and 340517 columns (presolve time = 145s) ...
Presolve removed 397954 rows and 340517 columns (presolve time = 150s) ...
Presolve removed 397954 rows and 340517 columns (presolve time = 155s) ...
Presolve removed 397954 rows and 340517 columns (presolve time = 160s) ...
Presolve removed 503040 rows and 357404 columns (presolve time = 166s) ...
Presolve removed 519878 rows and 374242 columns (presolve time = 180s) ...
Presolve removed 606938 rows and 547993 columns (presolve time = 187s) ...
Presolve removed 777632 rows and 547993 columns (presolve time = 202s) ...
Presolve removed 777632 rows and 547993 columns (presolve time = 208s) ...
Presolve removed 777632 rows and 547993 columns (presolve time = 227s) ...
Presolve removed 777632 rows and 547993 columns (presolve time = 230s) ...
Presolve removed 777632 rows and 547993 columns (presolve time = 235s) ...
Presolve removed 777632 rows and 547993 columns (presolve time = 240s) ...
Presolve removed 777632 rows and 547993 columns (presolve time = 245s) ...
Presolve removed 777632 rows and 547993 columns (presolve time = 250s) ...
Presolve removed 777632 rows and 547993 columns (presolve time = 255s) ...
Presolve removed 777632 rows and 547993 columns (presolve time = 260s) ...
Presolve removed 777632 rows and 547993 columns (presolve time = 265s) ...
Presolve removed 777632 rows and 547993 columns (presolve time = 270s) ...
Presolve removed 777632 rows and 547993 columns (presolve time = 275s) ...
Presolve removed 777632 rows and 547993 columns (presolve time = 280s) ...
Presolve removed 777632 rows and 547993 columns (presolve time = 285s) ...
Presolve removed 777632 rows and 547993 columns (presolve time = 290s) ...
Presolve removed 777632 rows and 547993 columns (presolve time = 295s) ...
Presolve removed 777632 rows and 547993 columns (presolve time = 300s) ...
Presolve removed 777632 rows and 547993 columns (presolve time = 305s) ...
Presolve removed 777632 rows and 547993 columns (presolve time = 310s) ...
Presolve removed 777632 rows and 547993 columns (presolve time = 315s) ...
Presolve removed 777632 rows and 547993 columns (presolve time = 320s) ...
Presolve removed 777632 rows and 547993 columns (presolve time = 325s) ...
Presolve removed 777632 rows and 547993 columns (presolve time = 330s) ...
Presolve removed 777632 rows and 547993 columns (presolve time = 335s) ...
Presolve removed 777632 rows and 547993 columns (presolve time = 340s) ...
Presolve removed 777632 rows and 547993 columns (presolve time = 345s) ...
Presolve removed 777632 rows and 547993 columns (presolve time = 350s) ...
Presolve removed 777632 rows and 547993 columns (presolve time = 355s) ...
Presolve removed 777632 rows and 547993 columns (presolve time = 360s) ...
Presolve removed 777632 rows and 547993 columns (presolve time = 365s) ...
Presolve removed 777632 rows and 547993 columns (presolve time = 370s) ...
Presolve removed 777632 rows and 547993 columns (presolve time = 375s) ...
Presolve removed 777632 rows and 547993 columns (presolve time = 380s) ...
Presolve removed 777632 rows and 547993 columns (presolve time = 385s) ...
Presolve removed 777632 rows and 547993 columns (presolve time = 390s) ...
Presolve removed 777632 rows and 547993 columns (presolve time = 395s) ...
Presolve removed 777632 rows and 547993 columns (presolve time = 400s) ...
Presolve removed 777632 rows and 547993 columns (presolve time = 405s) ...
Presolve removed 777632 rows and 547993 columns (presolve time = 410s) ...
Presolve removed 777632 rows and 547993 columns (presolve time = 415s) ...
Presolve removed 777632 rows and 547993 columns (presolve time = 420s) ...
Presolve removed 777632 rows and 547993 columns (presolve time = 425s) ...
Presolve removed 777632 rows and 547993 columns (presolve time = 430s) ...
Presolve removed 777632 rows and 547993 columns (presolve time = 435s) ...
Presolve removed 777632 rows and 547993 columns (presolve time = 440s) ...
Presolve removed 777632 rows and 547993 columns (presolve time = 445s) ...
Presolve removed 777632 rows and 547993 columns (presolve time = 450s) ...
Presolve removed 777632 rows and 547993 columns (presolve time = 455s) ...
Presolve removed 777632 rows and 547993 columns (presolve time = 460s) ...
Presolve removed 777632 rows and 547993 columns (presolve time = 465s) ...
Presolve removed 777632 rows and 547993 columns (presolve time = 470s) ...
Presolve removed 777632 rows and 547993 columns (presolve time = 475s) ...
Presolve removed 777632 rows and 547993 columns (presolve time = 480s) ...
Presolve removed 777632 rows and 547993 columns (presolve time = 485s) ...
Presolve removed 777632 rows and 547993 columns (presolve time = 490s) ...
Presolve removed 777632 rows and 547993 columns (presolve time = 495s) ...
Presolve removed 777632 rows and 547993 columns (presolve time = 500s) ...
Presolve removed 777632 rows and 547993 columns (presolve time = 505s) ...
Presolve removed 777632 rows and 547993 columns (presolve time = 510s) ...
Presolve removed 777632 rows and 547993 columns (presolve time = 515s) ...
Presolve removed 777632 rows and 547993 columns (presolve time = 520s) ...
Presolve removed 777632 rows and 547993 columns (presolve time = 525s) ...
Presolve removed 777632 rows and 547993 columns (presolve time = 530s) ...
Presolve removed 777632 rows and 547993 columns (presolve time = 535s) ...
Presolve removed 777632 rows and 547993 columns (presolve time = 540s) ...
Presolve removed 777632 rows and 547993 columns (presolve time = 545s) ...
Presolve removed 777632 rows and 547993 columns (presolve time = 550s) ...
Presolve removed 777632 rows and 547993 columns (presolve time = 555s) ...
Presolve removed 777632 rows and 547993 columns (presolve time = 560s) ...
Presolve removed 777632 rows and 547993 columns (presolve time = 565s) ...
Presolve removed 777632 rows and 547993 columns (presolve time = 570s) ...
Presolve removed 777632 rows and 547993 columns (presolve time = 575s) ...
Presolve removed 777632 rows and 547993 columns (presolve time = 580s) ...
Presolve removed 777632 rows and 547993 columns (presolve time = 585s) ...
Presolve removed 777632 rows and 547993 columns (presolve time = 590s) ...
Presolve removed 777632 rows and 547993 columns (presolve time = 595s) ...
Presolve removed 777632 rows and 547993 columns (presolve time = 600s) ...
Presolve removed 777632 rows and 547993 columns (presolve time = 605s) ...
Presolve removed 777632 rows and 547993 columns (presolve time = 610s) ...
Presolve removed 777632 rows and 547993 columns (presolve time = 615s) ...
Presolve removed 777632 rows and 547993 columns (presolve time = 620s) ...
Presolve removed 777632 rows and 547993 columns (presolve time = 625s) ...
Presolve removed 777632 rows and 547993 columns (presolve time = 630s) ...
Presolve removed 777632 rows and 547993 columns (presolve time = 635s) ...
Presolve removed 777632 rows and 547993 columns (presolve time = 640s) ...
Presolve removed 777632 rows and 547993 columns (presolve time = 645s) ...
Presolve removed 777632 rows and 547993 columns (presolve time = 650s) ...
Presolve removed 777632 rows and 547993 columns (presolve time = 655s) ...
Presolve removed 777632 rows and 547993 columns (presolve time = 660s) ...
Presolve removed 777632 rows and 547993 columns (presolve time = 665s) ...
Presolve removed 777632 rows and 547993 columns (presolve time = 670s) ...
Presolve removed 777632 rows and 547993 columns (presolve time = 675s) ...
Presolve removed 777632 rows and 547993 columns (presolve time = 680s) ...
Presolve removed 777632 rows and 547993 columns (presolve time = 685s) ...
Presolve removed 777632 rows and 547993 columns (presolve time = 690s) ...
Presolve removed 777632 rows and 547993 columns (presolve time = 695s) ...
Presolve removed 777632 rows and 547993 columns (presolve time = 700s) ...
Presolve removed 777632 rows and 547993 columns (presolve time = 705s) ...
Presolve removed 777632 rows and 547993 columns (presolve time = 710s) ...
Presolve removed 777632 rows and 547993 columns (presolve time = 715s) ...
Presolve removed 777632 rows and 547993 columns (presolve time = 720s) ...
Presolve removed 777632 rows and 547993 columns (presolve time = 725s) ...
Presolve removed 777632 rows and 547993 columns (presolve time = 730s) ...
Presolve removed 777632 rows and 547993 columns (presolve time = 735s) ...
Presolve removed 777632 rows and 547993 columns (presolve time = 740s) ...
Presolve removed 777632 rows and 547993 columns (presolve time = 745s) ...
Presolve removed 777632 rows and 547993 columns (presolve time = 750s) ...
Presolve removed 777632 rows and 547993 columns (presolve time = 755s) ...
Presolve removed 777632 rows and 547993 columns (presolve time = 760s) ...
Presolve removed 777632 rows and 547993 columns (presolve time = 765s) ...
Presolve removed 777632 rows and 547993 columns (presolve time = 770s) ...
Presolve removed 777632 rows and 547993 columns (presolve time = 775s) ...
Presolve removed 777632 rows and 547993 columns (presolve time = 780s) ...
Presolve removed 777632 rows and 547993 columns (presolve time = 785s) ...
Presolve removed 777632 rows and 547993 columns (presolve time = 790s) ...
Presolve removed 777632 rows and 547993 columns (presolve time = 795s) ...
Presolve removed 777632 rows and 547993 columns (presolve time = 800s) ...
Presolve removed 777632 rows and 547993 columns (presolve time = 805s) ...
Presolve removed 777632 rows and 547993 columns (presolve time = 810s) ...
Presolve removed 777632 rows and 547993 columns (presolve time = 815s) ...
Presolve removed 777632 rows and 547993 columns (presolve time = 820s) ...
Presolve removed 777632 rows and 547993 columns (presolve time = 825s) ...
Presolve removed 777632 rows and 547993 columns (presolve time = 830s) ...
Presolve removed 777632 rows and 547993 columns (presolve time = 835s) ...
Presolve removed 777632 rows and 547993 columns (presolve time = 840s) ...
Presolve removed 777632 rows and 547993 columns (presolve time = 845s) ...
Presolve removed 777632 rows and 547993 columns (presolve time = 850s) ...
Presolve removed 777632 rows and 547993 columns (presolve time = 855s) ...
Presolve removed 777632 rows and 547993 columns (presolve time = 860s) ...
Presolve removed 777632 rows and 547993 columns (presolve time = 865s) ...
Presolve removed 777632 rows and 581801 columns (presolve time = 903s) ...
Presolve removed 777632 rows and 581801 columns (presolve time = 911s) ...
Presolve removed 845248 rows and 615609 columns (presolve time = 915s) ...
Presolve removed 845248 rows and 615609 columns (presolve time = 923s) ...
Presolve removed 845248 rows and 615609 columns (presolve time = 929s) ...
Presolve removed 876983 rows and 615609 columns (presolve time = 937s) ...
Presolve removed 876983 rows and 615609 columns (presolve time = 942s) ...
Presolve removed 876983 rows and 615609 columns (presolve time = 962s) ...
Presolve removed 876983 rows and 615609 columns (presolve time = 965s) ...
Presolve removed 876983 rows and 615609 columns (presolve time = 970s) ...
Presolve removed 876983 rows and 615609 columns (presolve time = 975s) ...
Presolve removed 876983 rows and 615609 columns (presolve time = 980s) ...
Presolve removed 876983 rows and 615609 columns (presolve time = 985s) ...
Presolve removed 876983 rows and 615609 columns (presolve time = 990s) ...
Presolve removed 876983 rows and 615609 columns (presolve time = 995s) ...
Presolve removed 876983 rows and 615609 columns (presolve time = 1000s) ...
Presolve removed 876983 rows and 615609 columns (presolve time = 1005s) ...
Presolve removed 876983 rows and 615609 columns (presolve time = 1010s) ...
Presolve removed 876983 rows and 615609 columns (presolve time = 1015s) ...
Presolve removed 876983 rows and 615609 columns (presolve time = 1020s) ...
Presolve removed 876983 rows and 615609 columns (presolve time = 1025s) ...
Presolve removed 876983 rows and 615609 columns (presolve time = 1030s) ...
Presolve removed 876983 rows and 615609 columns (presolve time = 1035s) ...
Presolve removed 876983 rows and 615609 columns (presolve time = 1040s) ...
Presolve removed 876983 rows and 615609 columns (presolve time = 1045s) ...
Presolve removed 876983 rows and 615609 columns (presolve time = 1050s) ...
Presolve removed 876983 rows and 615609 columns (presolve time = 1055s) ...
Presolve removed 876983 rows and 615609 columns (presolve time = 1060s) ...
Presolve removed 876983 rows and 615609 columns (presolve time = 1065s) ...
Presolve removed 876983 rows and 615609 columns (presolve time = 1070s) ...
Presolve removed 876983 rows and 615609 columns (presolve time = 1075s) ...
Presolve removed 876983 rows and 615609 columns (presolve time = 1080s) ...
Presolve removed 876983 rows and 615609 columns (presolve time = 1085s) ...
Presolve removed 876983 rows and 615609 columns (presolve time = 1090s) ...
Presolve removed 876983 rows and 615609 columns (presolve time = 1095s) ...
Presolve removed 876983 rows and 615609 columns (presolve time = 1100s) ...
Presolve removed 876983 rows and 615609 columns (presolve time = 1105s) ...
Presolve removed 876983 rows and 615609 columns (presolve time = 1110s) ...
Presolve removed 876983 rows and 615609 columns (presolve time = 1115s) ...
Presolve removed 876983 rows and 615609 columns (presolve time = 1120s) ...
Presolve removed 876983 rows and 615609 columns (presolve time = 1125s) ...
Presolve removed 876983 rows and 615609 columns (presolve time = 1130s) ...
Presolve removed 876983 rows and 615609 columns (presolve time = 1135s) ...
Presolve removed 876983 rows and 615609 columns (presolve time = 1140s) ...
Presolve removed 876983 rows and 615609 columns (presolve time = 1145s) ...
Presolve removed 876983 rows and 615609 columns (presolve time = 1150s) ...
Presolve removed 876983 rows and 615609 columns (presolve time = 1155s) ...
Presolve removed 876983 rows and 615609 columns (presolve time = 1160s) ...
Presolve removed 876983 rows and 615609 columns (presolve time = 1165s) ...
Presolve removed 876983 rows and 615609 columns (presolve time = 1170s) ...
Presolve removed 876983 rows and 615609 columns (presolve time = 1175s) ...
Presolve removed 876983 rows and 615609 columns (presolve time = 1180s) ...
Presolve removed 876983 rows and 615609 columns (presolve time = 1185s) ...
Presolve removed 876983 rows and 615609 columns (presolve time = 1190s) ...
Presolve removed 876983 rows and 615609 columns (presolve time = 1195s) ...
Presolve removed 876983 rows and 615609 columns (presolve time = 1200s) ...
Presolve removed 876983 rows and 615609 columns (presolve time = 1205s) ...
Presolve removed 876983 rows and 615609 columns (presolve time = 1210s) ...
Presolve removed 876983 rows and 615609 columns (presolve time = 1215s) ...
Presolve removed 876983 rows and 615609 columns (presolve time = 1220s) ...
Presolve removed 876983 rows and 615609 columns (presolve time = 1225s) ...
Presolve removed 876983 rows and 615609 columns (presolve time = 1230s) ...
Presolve removed 876983 rows and 615609 columns (presolve time = 1235s) ...
Presolve removed 876983 rows and 615609 columns (presolve time = 1240s) ...
Presolve removed 876983 rows and 615609 columns (presolve time = 1245s) ...
Presolve removed 876983 rows and 615609 columns (presolve time = 1250s) ...
Presolve removed 876983 rows and 615609 columns (presolve time = 1255s) ...
Presolve removed 876983 rows and 615609 columns (presolve time = 1260s) ...
Presolve removed 876983 rows and 615609 columns (presolve time = 1265s) ...
Presolve removed 876983 rows and 615609 columns (presolve time = 1270s) ...
Presolve removed 876983 rows and 615609 columns (presolve time = 1275s) ...
Presolve removed 876983 rows and 615609 columns (presolve time = 1280s) ...
Presolve removed 876983 rows and 615609 columns (presolve time = 1285s) ...
Presolve removed 876983 rows and 615609 columns (presolve time = 1290s) ...
Presolve removed 876983 rows and 615609 columns (presolve time = 1295s) ...
Presolve removed 876983 rows and 615609 columns (presolve time = 1300s) ...
Presolve removed 876983 rows and 615609 columns (presolve time = 1305s) ...
Presolve removed 876983 rows and 615609 columns (presolve time = 1310s) ...
Presolve removed 876983 rows and 615609 columns (presolve time = 1315s) ...
Presolve removed 876983 rows and 615609 columns (presolve time = 1320s) ...
Presolve removed 876983 rows and 615609 columns (presolve time = 1325s) ...
Presolve removed 876983 rows and 615609 columns (presolve time = 1330s) ...
Presolve removed 876983 rows and 615609 columns (presolve time = 1335s) ...
Presolve removed 876983 rows and 615609 columns (presolve time = 1340s) ...
Presolve removed 876983 rows and 615609 columns (presolve time = 1345s) ...
Presolve removed 876983 rows and 615609 columns (presolve time = 1350s) ...
Presolve removed 876983 rows and 615609 columns (presolve time = 1355s) ...
Presolve removed 876983 rows and 615609 columns (presolve time = 1360s) ...
Presolve removed 876983 rows and 615609 columns (presolve time = 1365s) ...
Presolve removed 876983 rows and 615609 columns (presolve time = 1370s) ...
Presolve removed 876983 rows and 615609 columns (presolve time = 1375s) ...
Presolve removed 876983 rows and 615609 columns (presolve time = 1380s) ...
Presolve removed 876983 rows and 615609 columns (presolve time = 1385s) ...
Presolve removed 876983 rows and 615609 columns (presolve time = 1390s) ...
Presolve removed 876983 rows and 615609 columns (presolve time = 1395s) ...
Presolve removed 876983 rows and 615609 columns (presolve time = 1400s) ...
Presolve removed 876983 rows and 615609 columns (presolve time = 1405s) ...
Presolve removed 876983 rows and 615609 columns (presolve time = 1410s) ...
Presolve removed 876983 rows and 615609 columns (presolve time = 1415s) ...
Presolve removed 876983 rows and 615609 columns (presolve time = 1420s) ...
Presolve removed 876983 rows and 615609 columns (presolve time = 1425s) ...
Presolve removed 876983 rows and 615609 columns (presolve time = 1430s) ...
Presolve removed 876983 rows and 615609 columns (presolve time = 1435s) ...
Presolve removed 876983 rows and 615609 columns (presolve time = 1440s) ...
Presolve removed 876983 rows and 615609 columns (presolve time = 1445s) ...
Presolve removed 876983 rows and 615609 columns (presolve time = 1450s) ...
Presolve removed 876983 rows and 615609 columns (presolve time = 1455s) ...
Presolve removed 876983 rows and 615609 columns (presolve time = 1460s) ...
Presolve removed 876983 rows and 615609 columns (presolve time = 1465s) ...
Presolve removed 876983 rows and 615609 columns (presolve time = 1470s) ...
Presolve removed 876983 rows and 615609 columns (presolve time = 1475s) ...
Presolve removed 876983 rows and 615609 columns (presolve time = 1480s) ...
Presolve removed 876983 rows and 615609 columns (presolve time = 1485s) ...
Presolve removed 876983 rows and 615609 columns (presolve time = 1490s) ...
Presolve removed 876983 rows and 615609 columns (presolve time = 1495s) ...
Presolve removed 876983 rows and 615609 columns (presolve time = 1500s) ...
Presolve removed 876983 rows and 615609 columns (presolve time = 1505s) ...
Presolve removed 876983 rows and 615609 columns (presolve time = 1510s) ...
Presolve removed 876983 rows and 615609 columns (presolve time = 1515s) ...
Presolve removed 876983 rows and 615609 columns (presolve time = 1520s) ...
Presolve removed 876983 rows and 615609 columns (presolve time = 1525s) ...
Presolve removed 876983 rows and 615609 columns (presolve time = 1530s) ...
Presolve removed 876983 rows and 615609 columns (presolve time = 1535s) ...
Presolve removed 876983 rows and 615609 columns (presolve time = 1540s) ...
Presolve removed 876983 rows and 615609 columns (presolve time = 1545s) ...
Presolve removed 876983 rows and 615609 columns (presolve time = 1550s) ...
Presolve removed 884218 rows and 621579 columns (presolve time = 1631s) ...
Presolve removed 884218 rows and 621579 columns
Presolve time: 1631.25s
Presolved: 5656131 rows, 3202599 columns, 20727759 nonzeros
Variable types: 858707 continuous, 2343892 integer (2343892 binary)
Found heuristic solution: objective 13137.400000
Optimize a model with 5656131 rows, 3202599 columns and 20727759 nonzeros
Coefficient statistics:
  Matrix range    [2e-02, 7e+02]
  Objective range [1e+00, 7e+02]
  Bounds range    [7e-01, 5e+01]
  RHS range       [1e+00, 1e+04]

Deterministic concurrent LP optimizer: primal simplex, dual simplex, and barrier
Showing barrier log only...

Presolve removed 0 rows and 0 columns (presolve time = 14s) ...
Presolve removed 0 rows and 0 columns (presolve time = 20s) ...
